set C := 1 2 3 4 5 6 7 8 9 10;

param q :=
    1 23.16
    2 11.50
    3 48.21
    4 47.34
    5 42.88
    6 12.97
    7 23.37
    8 23.50
    9 47.47
    10 28.10;
param ca :=
    1 212.63
    2 230.95
    3 194.21
    4 226.50
    5 211.53
    6 186.63
    7 152.44
    8 199.29
    9 216.90
    10 169.97;
param cc :=
    1 35.41
    2 30.84
    3 49.74
    4 31.45
    5 38.80
    6 34.02
    7 34.77
    8 43.96
    9 46.23
    10 32.93;
param cp :=
    1 11.23
    2 5.68
    3 8.47
    4 6.48
    5 8.13
    6 9.47
    7 10.31
    8 11.66
    9 5.24
    10 9.46;
param sMin := 0;
param sMax := 80;

namespace t0
{
    set A := 1;
    set AAnt := 2;
    set P := 3 4 5 6 7 8 9 10;
    set S := 1;

    param p :=
        1 1.0000000000;
    param d :=
        1 31.08;
    param h := 1;
    param s0 := 20;
}

namespace t1
{
    set AAnt := 1;
    set P := 3 4 5 6 7 8 9 10;
    set PAnt := 3 4 5 6 7 8 9 10;
    set S := 1 2;

    param p :=
        1 0.3669240492
        2 0.6330759508;
    param d :=
        1 24.62
        2 23.00;
    param h := 1;
}

namespace t2
{
    set A2Ant := 1;
    set P := 3 4 5 6 7 8 9 10;
    set PAnt := 3 4 5 6 7 8 9 10;
    set S := 1 2;

    param p :=
        1 0.2459289004
        2 0.7540710996;
    param d :=
        1 42.52
        2 31.45;
    param h := 1;
}

namespace t3
{
    set P := 3 4 5 6 7 8 9 10;
    set PAnt := 3 4 5 6 7 8 9 10;
    set S := 1 2;

    param p :=
        1 0.5538333027
        2 0.4461666973;
    param d :=
        1 11.71
        2 30.59;
    param h := 1;
}

namespace t4
{
    set PAnt := 3 4 5 6 7 8 9 10;
    set S := 1 2;

    param p :=
        1 0.6545980017
        2 0.3454019983;
    param d :=
        1 46.15
        2 14.76;
    param h := 1;
}
